p cnf 131 423
2 3 -4 0
-2 -3 -4 0
2 -3 4 0
-2 3 4 0
-5 4 0
-5 -4 0
-6 -5 0
-6 -1 0
5 1 6 0
8 -6 0
8 7 0
6 -7 -8 0
9 1 0
9 8 0
-1 -8 -9 0
11 -2 -12 0
-11 2 -12 0
11 2 12 0
-11 -2 12 0
13 -10 0
13 12 0
10 -12 -13 0
7 -11 -15 0
-7 11 -15 0
7 11 15 0
-7 -11 15 0
-14 15 -16 0
14 -15 -16 0
-14 -15 16 0
14 15 16 0
-17 -16 0
-17 7 0
16 -7 17 0
-18 -13 0
-18 -17 0
13 17 18 0
-20 -4 -21 0
20 4 -21 0
-20 4 21 0
20 -4 21 0
-22 -4 0
-22 21 0
4 -21 22 0
-23 -19 0
-23 -22 0
19 22 23 0
-20 24 -25 0
20 -24 -25 0
-20 -24 25 0
20 24 25 0
26 23 0
26 -25 0
-23 25 -26 0
-27 18 0
-27 -26 0
-18 26 27 0
-28 -9 0
-28 -27 0
9 27 28 0
30 -29 0
30 29 0
31 -24 -32 0
-31 24 -32 0
31 24 32 0
-31 -24 32 0
-33 -30 0
-33 -32 0
30 32 33 0
34 33 0
34 -20 0
-33 20 -34 0
35 -21 0
35 -4 0
21 4 -35 0
36 -35 0
36 -22 0
35 22 -36 0
-37 34 0
-37 36 0
-34 -36 37 0
39 -38 0
39 -21 0
38 21 -39 0
11 40 0
-11 40 0
-29 -40 -41 0
29 40 -41 0
-29 40 41 0
29 -40 41 0
-40 -41 -42 0
40 41 -42 0
-40 41 42 0
40 -41 42 0
43 39 0
43 -42 0
-39 42 -43 0
44 43 0
44 32 0
-43 -32 -44 0
-45 3 0
-45 20 0
-3 -20 45 0
-46 -45 0
-46 29 0
45 -29 46 0
47 -46 0
47 2 0
46 -2 -47 0
48 -44 0
48 -47 0
44 47 -48 0
-41 -40 -49 0
41 40 -49 0
-41 40 49 0
41 -40 49 0
50 -49 0
50 5 0
49 -5 -50 0
50 40 -51 0
-50 -40 -51 0
50 -40 51 0
-50 40 51 0
-50 46 -52 0
50 -46 -52 0
-50 -46 52 0
50 46 52 0
53 51 0
53 52 0
-51 -52 -53 0
-48 -53 -54 0
48 53 -54 0
-48 53 54 0
48 -53 54 0
-55 37 0
-55 54 0
-37 -54 55 0
56 -28 0
56 -55 0
28 55 -56 0
1 -10 -57 0
-1 10 -57 0
1 10 57 0
-1 -10 57 0
58 -19 0
58 40 0
19 -40 -58 0
-59 -32 0
-59 24 0
32 -24 59 0
60 -59 0
60 -31 0
59 31 -60 0
-61 2 0
-61 -60 0
-2 60 61 0
-62 10 0
-62 -61 0
-10 61 62 0
63 -58 0
63 62 0
58 -62 -63 0
64 -63 0
64 8 0
63 -8 -64 0
65 -57 0
65 64 0
57 -64 -65 0
66 41 -67 0
-66 -41 -67 0
66 -41 67 0
-66 41 67 0
-68 -67 0
-68 -43 0
67 43 68 0
-69 -46 0
-69 -60 0
46 60 69 0
70 -68 0
70 -69 0
68 69 -70 0
-72 -19 0
-72 71 0
19 -71 72 0
-73 -72 0
-73 -72 0
72 73 0
74 -70 0
74 -73 0
70 73 -74 0
-41 4 -75 0
41 -4 -75 0
-41 -4 75 0
41 4 75 0
-75 -39 -76 0
75 39 -76 0
-75 39 76 0
75 -39 76 0
77 74 0
77 -76 0
-74 76 -77 0
78 21 0
78 22 0
-21 -22 -78 0
-79 77 0
-79 78 0
-77 -78 79 0
80 65 0
80 -79 0
-65 79 -80 0
-81 71 0
-81 -13 0
-71 13 81 0
-82 10 0
-82 2 0
-10 -2 82 0
-83 -82 0
-83 6 0
82 -6 83 0
-84 81 0
-84 -83 0
-81 83 84 0
-16 -66 -85 0
16 66 -85 0
-16 66 85 0
16 -66 85 0
-86 82 0
-86 42 0
-82 -42 86 0
-87 -85 0
-87 -86 0
85 86 87 0
-88 84 0
-88 -87 0
-84 87 88 0
-89 80 0
-89 -88 0
-80 88 89 0
90 7 0
90 15 0
-7 -15 -90 0
91 -6 0
91 -33 0
6 33 -91 0
-92 90 0
-92 91 0
-90 -91 92 0
93 3 0
93 1 0
-3 -1 -93 0
94 30 0
94 -93 0
-30 93 -94 0
92 -94 -95 0
-92 94 -95 0
92 94 95 0
-92 -94 95 0
-96 66 0
-96 24 0
-66 -24 96 0
-97 -95 0
-97 -96 0
95 96 97 0
98 89 0
98 97 0
-89 -97 -98 0
6 -91 -99 0
-6 91 -99 0
6 91 99 0
-6 -91 99 0
100 -99 0
100 13 0
99 -13 -100 0
101 59 0
101 60 0
-59 -60 -101 0
-102 21 0
-102 101 0
-21 -101 102 0
-103 100 0
-103 102 0
-100 -102 103 0
40 -24 -104 0
-40 24 -104 0
40 24 104 0
-40 -24 104 0
-105 -104 0
-105 1 0
104 -1 105 0
-106 -93 0
-106 66 0
93 -66 106 0
107 38 0
107 -106 0
-38 106 -107 0
108 105 0
108 -107 0
-105 107 -108 0
109 32 0
109 -49 0
-32 49 -109 0
-110 -109 0
-110 8 0
109 -8 110 0
-111 -99 0
-111 -110 0
99 110 111 0
-112 -41 0
-112 -16 0
41 16 112 0
-113 111 0
-113 -112 0
-111 112 113 0
-114 60 0
-114 -7 0
-60 7 114 0
-115 -113 0
-115 -114 0
113 114 115 0
-116 -75 0
-116 -8 0
75 8 116 0
117 -24 0
117 -22 0
24 22 -117 0
-118 117 0
-118 72 0
-117 -72 118 0
-118 -109 -119 0
118 109 -119 0
-118 109 119 0
118 -109 119 0
120 41 0
120 119 0
-41 -119 -120 0
121 116 0
121 -120 0
-116 120 -121 0
-122 115 0
-122 -121 0
-115 121 122 0
124 123 0
124 63 0
-123 -63 -124 0
-125 90 0
-125 -33 0
-90 33 125 0
-124 -125 -126 0
124 125 -126 0
-124 125 126 0
124 -125 126 0
-127 -122 0
-127 126 0
122 -126 127 0
108 127 -128 0
-108 -127 -128 0
108 -127 128 0
-108 127 128 0
129 -103 0
129 -128 0
103 128 -129 0
130 -98 0
130 129 0
98 -129 -130 0
56 -130 -131 0
-56 130 -131 0
56 130 131 0
-56 -130 131 0
-80 92 -101 0
35 -74 0
-15 -28 42 -50 24 0
104 -33 -18 -38 0
-76 -68 0
-40 -80 36 60 0
-125 123 -71 0
83 -37 -64 -116 5 0
70 -49 88 -130 -19 3 0
-48 -24 -77 -19 35 73 0
32 83 -84 -103 0
-124 68 0
-90 -20 18 -5 100 0
-73 -124 20 -60 7 0
44 -55 0
-45 111 78 63 0
-49 -46 -81 -43 0
72 41 -77 14 16 111 0
-81 -35 -119 -101 18 0
-91 -47 -98 0
9 59 -80 -126 -118 52 0
95 -8 0
123 -46 -32 -4 0
-7 -31 -63 0
-107 -43 80 100 -91 0
80 4 9 88 -72 91 0
-123 -107 53 109 84 0
26 131 -33 76 -44 0
-66 -83 56 -116 0
110 101 0
-105 -61 -91 -108 -124 0
64 -75 47 -88 104 0
-1 17 8 -99 0
74 -9 0
-74 -78 47 0
93 92 -116 118 22 3 0
-36 -120 0
113 1 44 -43 112 91 0
128 99 -88 0
-99 -94 -100 -25 0
-88 -25 87 15 -58 14 0
-2 80 -116 71 0
-50 76 0
107 -104 -99 -96 100 77 0
55 17 -5 37 0
90 9 109 127 0
-13 62 -125 -8 -30 0
29 -52 119 36 -43 -19 0
78 -84 -82 -114 0
21 108 -14 -32 -36 -31 0
-116 17 0
82 -120 81 -34 131 114 0
59 -81 -64 86 53 0
-30 -59 -83 24 33 52 0
52 -86 -97 -3 42 -88 0
131 0
